StudentsNr = 10;
InstructorsNr = 33;
DaysNr = 2;
SlotsPerDay = 40;
AvailabilitySlotsLenght = 10;
RoomNr = 2;
ProgrammNr = 1;
DegreeNr = 3;
RolesNr = 4;
CoursesNr = 9;
InstructorsProgramm = [{1}, {1}, {1}, {1}, {1}, {1}, {1}, {1}, {1}, {1}, {1}, {1}, {1}, {1}, {1}, {1}, {1}, {1}, {1}, {1}, {1}, {1}, {1}, {1}, {1}, {1}, {1}, {1}, {1}, {1}, {1}, {1}, {1}];
InstructorRolesPerProgramm = [|{2, 8, 10, 12, 15, 19, 21, 23, 24, 25, 28, 30, 31}, {1, 2, 5, 6, 9, 10, 13, 17, 18, 23, 24, 25, 26, 28, 30, 31, 32}, {5, 6, 8, 9, 10, 12, 13, 14, 15, 16, 17, 19, 21, 26, 27, 30, 31, 32}, {7, 11, 13, 17, 20, 21, 22, 23, 24, 25, 27, 28, 30, 32}|];
InstructorsAvailability = [|0, 0, 0, 1, 0, 0, 1, 1, |0, 0, 1, 1, 1, 1, 1, 1, |1, 1, 1, 1, 1, 1, 0, 1, |1, 1, 0, 1, 1, 1, 1, 1, |1, 1, 1, 1, 1, 0, 1, 1, |0, 1, 1, 1, 0, 1, 1, 1, |1, 1, 1, 1, 1, 1, 1, 1, |1, 1, 1, 1, 1, 1, 1, 1, |1, 1, 1, 0, 1, 1, 1, 1, |1, 1, 1, 1, 1, 1, 1, 1, |0, 1, 0, 1, 1, 1, 1, 1, |1, 0, 1, 1, 1, 1, 1, 1, |0, 0, 0, 1, 1, 1, 1, 1, |1, 0, 1, 0, 0, 1, 1, 1, |1, 1, 1, 1, 1, 0, 0, 1, |0, 0, 1, 1, 1, 1, 1, 1, |0, 1, 1, 1, 0, 0, 1, 1, |0, 0, 0, 1, 0, 0, 1, 1, |0, 1, 1, 1, 1, 1, 1, 1, |0, 1, 1, 1, 1, 1, 1, 1, |1, 1, 1, 1, 1, 1, 1, 0, |0, 0, 0, 1, 1, 1, 1, 1, |1, 1, 1, 1, 1, 1, 1, 1, |0, 0, 0, 1, 1, 1, 1, 1, |0, 0, 1, 1, 1, 1, 1, 1, |1, 1, 1, 1, 1, 1, 0, 1, |0, 0, 1, 1, 1, 1, 1, 0, |0, 0, 1, 0, 1, 1, 1, 1, |1, 1, 1, 1, 1, 0, 1, 1, |1, 1, 1, 1, 1, 1, 1, 1, |0, 1, 1, 1, 0, 1, 1, 0, |1, 1, 1, 1, 1, 1, 1, 0, |0, 1, 1, 0, 1, 1, 1, 1|];
StudentsProgramm = [1, 1, 1, 1, 1, 1, 1, 1, 1, 1];
StudentsDegree = [3, 3, 2, 2, 3, 2, 3, 3, 1, 3];
StudentsSupervisorId = [8, 33, 27, 24, 32, 3, 20, 27, 10, 16];
StudentsCourseIds = [{1, 2, 3, 4, 5, 6, 8, 9}, {1, 2, 4, 5, 6, 7, 8, 9}, {1, 3, 5, 6, 7, 9}, {2, 4, 5, 6, 7, 9}, {1, 2, 3, 4, 6, 7, 8, 9}, {1, 2, 4, 5, 7, 8}, {1, 2, 3, 4, 5, 7, 8, 9}, {1, 2, 3, 5, 6, 7, 8, 9}, {3, 4, 5, 6, 7, 8}, {1, 2, 3, 4, 5, 6, 7, 9}];
StudentsAvailability = [|1, 1, 1, 1, 1, 1, 1, 1, |1, 1, 1, 1, 1, 1, 1, 1, |1, 1, 1, 1, 1, 1, 1, 1, |1, 1, 1, 1, 1, 1, 1, 1, |1, 1, 1, 1, 1, 0, 1, 1, |0, 1, 1, 1, 0, 1, 0, 1, |0, 0, 1, 1, 1, 1, 1, 0, |0, 0, 0, 1, 1, 1, 1, 1, |1, 1, 1, 1, 1, 1, 1, 0, |1, 0, 0, 0, 0, 1, 1, 0|];
TheoryticalMinCard = [0, 0, 0, 0, 0, 0, 0, 0, 0, 0];
CoursesInstructorIds = [{2, 3, 6, 7, 8, 11, 12, 14, 15, 16, 17, 18, 20, 23, 24, 27, 30, 32, 33}, {2, 5, 7, 8, 9, 11, 18, 25, 29, 30}, {2, 5, 6, 11, 14, 16, 18, 19, 24, 26, 28, 33}, {2, 3, 4, 5, 6, 9, 11, 15, 18, 20, 27, 29, 32}, {3, 4, 5, 8, 11, 12, 13, 14, 15, 16, 19, 21, 23, 24, 26, 28, 33}, {1, 5, 6, 7, 8, 10, 11, 12, 13, 14, 15, 20, 22, 26, 27, 28, 29, 30}, {3, 4, 5, 9, 11, 12, 13, 15, 18, 22, 23, 25, 32, 33}, {1, 2, 3, 8, 9, 11, 15, 16, 19, 21, 23, 24, 27, 29, 30, 31, 33}, {3, 4, 14, 18, 19, 21, 31, 32}];
RolesDemands = [6, 13, 11, 2];
RolesContinuity = [4];
ExamLen = [2, 2, 2, 2, 2, 2, 2, 2, 1, 2];
LunchTsMinLen = 1;
LunchStarts = [11..22, 53..61];
SupervisorAvailable = 0;
OptimalLunchLenght = [2, 1];
OptimalStartTs = [0, 0];
OptimalFinishTs = [2, 40];
MinimizeRooms = 500;
RolesSoftContinuity = [|1, 2, 3, 4|3, 3, 3, 2|];
SameDegreeInRoom = 0;
Mergeability = 0;
